(set-info :smt-lib-version 2.6)
(set-logic QF_LIA)
(set-info :category "industrial")
(set-info :status sat)
(declare-fun x0 () Int)
(declare-fun x1 () Int)
(declare-fun x10 () Int)
(declare-fun x11 () Int)
(declare-fun x12 () Int)
(declare-fun x13 () Int)
(declare-fun x14 () Int)
(declare-fun x15 () Int)
(declare-fun x16 () Int)
(declare-fun x17 () Int)
(declare-fun x18 () Int)
(declare-fun x19 () Int)
(declare-fun x2 () Int)
(declare-fun x20 () Int)
(declare-fun x21 () Int)
(declare-fun x22 () Int)
(declare-fun x23 () Int)
(declare-fun x24 () Int)
(declare-fun x3 () Int)
(declare-fun x4 () Int)
(declare-fun x5 () Int)
(declare-fun x6 () Int)
(declare-fun x7 () Int)
(declare-fun x8 () Int)
(declare-fun x9 () Int)
(assert (let ((?v_43 (* 0 x0)) (?v_61 (* 1 x11)) (?v_5 (* 0 x13)) (?v_8 (* 0 x18)) (?v_16 (* 1 x16)) (?v_0 (* 0 x2)) (?v_3 (* 0 x3)) (?v_34 (* 0 x6)) (?v_19 (* 0 x7)) (?v_20 (* 0 x8)) (?v_30 (* 1 x5)) (?v_26 (* 0 x12)) (?v_28 (* 2 x13)) (?v_6 (* 1 x15)) (?v_10 (* 0 x22)) (?v_12 (* 0 x4)) (?v_47 (* 0 x5)) (?v_67 (* 1 x1)) (?v_4 (* 1 x7)) (?v_42 (* 1 x8)) (?v_48 (* 1 x9))) (let ((?v_70 (+ ?v_42 ?v_48))) (let ((?v_84 (+ ?v_4 ?v_70)) (?v_33 (* 0 x11)) (?v_71 (* 0 x14)) (?v_39 (* 0 x15)) (?v_7 (* 0 x17)) (?v_17 (* 0 x19)) (?v_9 (* 0 x21)) (?v_21 (* 0 x9)) (?v_18 (* 0 x24)) (?v_46 (* 1 x3)) (?v_27 (* 1 x10)) (?v_29 (* 1 x14))) (let ((?v_88 (+ ?v_21 ?v_29)) (?v_32 (* 0 x10)) (?v_50 (* 1 x17)) (?v_41 (* 1 x18)) (?v_35 (* 1 x2)) (?v_91 (* 2 x7)) (?v_36 (* 1 x0)) (?v_72 (* 0 x23)) (?v_51 (* 1 x21)) (?v_59 (* 1 x6)) (?v_37 (* 1 x12)) (?v_38 (* 1 x13)) (?v_52 (* 1 x23)) (?v_75 (* 1 x22)) (?v_62 (* 2 x20)) (?v_58 (* 2 x15)) (?v_66 (* 0 x16)) (?v_54 (* 0 x20)) (?v_73 (* 1 x24)) (?v_57 (* 0 x1)) (?v_77 (* 2 x5)) (?v_78 (* 1 x19)) (?v_76 (* 1 x4))) (let ((?v_80 (+ ?v_76 ?v_47)) (?v_68 (* 1 x20)) (?v_79 (* 2 x9)) (?v_81 (* 2 x14)) (?v_87 (* 2 x17)) (?v_90 (* 3 x14)) (?v_64 (* (- 1) x17)) (?v_2 (* (- 1) x20)) (?v_14 (* (- 1) x21)) (?v_45 (* (- 1) x22)) (?v_13 (* (- 1) x11)) (?v_40 (* (- 1) x16)) (?v_1 (* (- 1) x18)) (?v_11 (* (- 1) x23)) (?v_24 (* (- 1) x12)) (?v_89 (* (- 2) x12)) (?v_22 (* (- 1) x0)) (?v_69 (* (- 1) x19)) (?v_15 (* (- 1) x6)) (?v_25 (* (- 1) x9)) (?v_23 (* (- 1) x1)) (?v_74 (* (- 1) x15)) (?v_63 (* (- 2) x3)) (?v_31 (* (- 1) x8)) (?v_56 (* (- 1) x4)) (?v_53 (* (- 1) x14)) (?v_44 (* (- 1) x2)) (?v_65 (* (- 1) x24)) (?v_49 (* (- 1) x10)) (?v_55 (* (- 1) x7)) (?v_60 (* (- 1) x3)) (?v_82 (* (- 1) x13)) (?v_85 (* (- 1) x5)) (?v_83 (* (- 2) x15)) (?v_86 (* (- 2) x18))) (and (<= (+ ?v_43 (+ (* (- 2) x1) (+ ?v_61 (+ ?v_64 (+ ?v_2 (+ ?v_14 (+ ?v_45 (+ ?v_5 (+ ?v_8 (+ ?v_16 (+ ?v_0 (+ ?v_3 (+ ?v_34 (+ ?v_19 (+ ?v_20 ?v_30))))))))))))))) 0) (<= (+ ?v_13 (+ ?v_26 (+ ?v_28 (+ (* (- 2) x14) (+ ?v_6 (+ ?v_40 (+ ?v_1 (+ ?v_11 (+ ?v_0 (+ ?v_10 (+ ?v_12 (+ ?v_47 (+ ?v_67 ?v_84))))))))))))) (- 1)) (<= (+ ?v_24 (+ ?v_1 (+ ?v_33 (+ (* (- 3) x2) (+ ?v_2 (+ (* (- 2) x24) (+ ?v_71 (+ ?v_39 (+ ?v_7 (+ ?v_17 (+ ?v_9 (+ ?v_3 (+ ?v_21 ?v_4))))))))))))) 0) (<= (+ ?v_89 (+ ?v_22 (+ ?v_5 (+ ?v_6 (+ ?v_7 (+ ?v_8 (+ ?v_69 (+ ?v_9 (+ ?v_10 (+ ?v_11 (+ ?v_15 (+ ?v_25 (+ ?v_18 (+ ?v_46 ?v_12)))))))))))))) 0) (<= (+ ?v_23 (+ ?v_13 (+ ?v_74 (+ ?v_2 (+ ?v_14 (+ ?v_11 (+ ?v_15 (+ ?v_5 (+ ?v_16 (+ ?v_17 (+ ?v_27 (+ ?v_0 (+ ?v_10 (+ ?v_18 (+ ?v_12 (+ ?v_19 (+ ?v_20 ?v_88))))))))))))))))) 1) (<= (+ ?v_22 (+ ?v_23 (+ ?v_24 (+ ?v_14 (+ ?v_11 (+ ?v_15 (+ ?v_25 (+ ?v_32 (+ ?v_5 (+ ?v_3 (+ ?v_16 (+ ?v_50 (+ ?v_41 (+ ?v_12 (+ ?v_20 (+ ?v_35 ?v_91)))))))))))))))) 0) (<= (+ ?v_63 (+ ?v_36 (+ ?v_23 (+ ?v_26 (+ ?v_8 (+ ?v_72 (+ ?v_31 (+ ?v_27 (+ ?v_28 (+ ?v_29 (+ ?v_51 (+ ?v_30 ?v_59)))))))))))) 0) (<= (+ ?v_23 (+ ?v_31 (+ ?v_32 (+ ?v_33 (+ ?v_37 (+ ?v_7 (+ ?v_38 (+ ?v_6 (+ ?v_17 (+ ?v_56 (+ ?v_34 (+ ?v_19 (+ ?v_35 (+ ?v_52 ?v_30)))))))))))))) 1) (<= (+ ?v_36 (+ ?v_23 (+ ?v_32 (+ ?v_33 (+ ?v_37 (+ ?v_38 (+ ?v_53 (+ ?v_39 (+ ?v_40 (+ ?v_41 (+ ?v_44 (+ ?v_75 (+ ?v_65 (+ ?v_34 (+ ?v_19 (+ ?v_30 ?v_42)))))))))))))))) (- 1)) (<= (+ ?v_43 (+ ?v_23 (+ ?v_49 (+ ?v_39 (+ ?v_41 (+ ?v_44 (+ ?v_14 (+ ?v_45 (+ ?v_11 (+ ?v_15 (+ ?v_46 (+ ?v_62 (+ ?v_55 (+ ?v_47 (+ ?v_20 ?v_48))))))))))))))) 1) (<= (+ ?v_49 (+ ?v_60 (+ ?v_58 (+ ?v_25 (+ ?v_66 (+ ?v_8 (+ ?v_54 (+ ?v_10 (+ ?v_34 (+ ?v_50 (+ ?v_35 (+ ?v_51 (+ ?v_52 (+ ?v_73 ?v_4)))))))))))))) 1) (<= (+ ?v_49 (+ ?v_43 (+ ?v_33 (+ ?v_37 (+ ?v_53 (+ ?v_8 (+ ?v_6 (+ ?v_54 (+ ?v_16 (+ ?v_50 (+ ?v_51 (+ ?v_18 (+ ?v_3 (+ ?v_34 (+ ?v_55 (+ ?v_31 ?v_30)))))))))))))))) (- 1)) (<= (+ ?v_36 (+ ?v_53 (+ ?v_40 (+ ?v_57 (+ ?v_26 (+ ?v_39 (+ ?v_41 (+ ?v_28 (+ ?v_0 (+ ?v_54 (+ ?v_18 (+ ?v_3 (+ ?v_47 (+ ?v_34 ?v_21)))))))))))))) 0) (<= (+ ?v_24 (+ ?v_53 (+ ?v_40 (+ ?v_56 (+ ?v_57 (+ ?v_58 (+ ?v_17 (+ ?v_10 (+ (* 3 x21) (+ ?v_59 (+ ?v_20 ?v_77))))))))))) 0) (<= (+ (* (- 2) x6) (+ ?v_36 (+ ?v_53 (+ ?v_11 (+ ?v_60 (+ ?v_57 (+ ?v_61 (+ ?v_37 (+ ?v_39 (+ ?v_7 (+ ?v_41 (+ ?v_21 (+ ?v_38 (+ ?v_78 (+ ?v_0 (* 2 x8)))))))))))))))) 0) (<= (+ ?v_40 (+ ?v_43 (+ ?v_5 (+ ?v_27 (+ ?v_53 (+ ?v_41 (+ ?v_44 (+ ?v_55 (+ ?v_57 (+ ?v_52 (+ ?v_46 (+ ?v_62 (+ ?v_21 ?v_80))))))))))))) (- 1)) (<= (+ ?v_63 (+ ?v_53 (+ ?v_64 (+ ?v_65 (+ ?v_56 (+ ?v_55 (+ ?v_57 (+ ?v_39 (+ ?v_8 (+ ?v_9 (+ ?v_21 (+ ?v_27 (+ ?v_16 (+ ?v_0 ?v_59)))))))))))))) 0) (<= (+ ?v_32 (+ ?v_33 (+ ?v_26 (+ ?v_53 (+ ?v_1 (+ ?v_11 (+ ?v_66 (+ ?v_54 (+ ?v_18 (+ ?v_55 (+ ?v_31 (+ ?v_17 (+ ?v_47 (+ ?v_35 ?v_48)))))))))))))) (- 1)) (<= (+ ?v_40 (+ ?v_64 (+ ?v_1 (+ (* (- 2) x19) (+ ?v_9 (+ ?v_65 (+ ?v_15 (+ ?v_19 (+ ?v_36 (+ ?v_53 (+ ?v_67 (+ ?v_68 (+ ?v_30 (+ ?v_42 (* 3 x9))))))))))))))) 0) (<= (+ ?v_22 (+ ?v_13 (+ ?v_82 (+ ?v_32 (+ ?v_53 (+ ?v_6 (+ ?v_64 (+ ?v_1 (+ ?v_45 (+ ?v_66 (+ ?v_17 (+ ?v_68 (+ ?v_52 (+ ?v_20 (+ ?v_30 ?v_79))))))))))))))) 0) (<= (+ ?v_64 (+ ?v_69 (+ ?v_32 (+ ?v_33 (+ ?v_26 (+ ?v_5 (+ ?v_39 (+ ?v_66 (+ ?v_54 (+ ?v_3 (+ ?v_52 (+ ?v_18 (+ ?v_19 ?v_70))))))))))))) 1) (<= (+ ?v_13 (+ ?v_32 (+ ?v_7 (+ ?v_36 (+ ?v_6 (+ ?v_16 (+ ?v_44 (+ ?v_65 (+ ?v_31 (+ ?v_57 (+ ?v_9 (+ ?v_10 (+ ?v_34 (+ ?v_68 ?v_19)))))))))))))) (- 1)) (<= (+ ?v_22 (+ ?v_37 (+ ?v_5 (+ (* 2 x10) (+ ?v_44 (+ ?v_71 (+ ?v_66 (+ ?v_8 (+ ?v_10 (+ ?v_51 (+ ?v_72 (+ ?v_34 (+ ?v_73 (+ ?v_19 (+ ?v_21 (* 4 x5)))))))))))))))) (- 1)) (<= (+ ?v_61 (+ ?v_74 (+ ?v_55 (+ ?v_25 (+ ?v_32 (+ ?v_5 (+ ?v_66 (+ ?v_8 (+ ?v_44 (+ ?v_51 (+ ?v_75 (+ ?v_52 (+ ?v_18 (+ ?v_3 (+ ?v_12 ?v_67))))))))))))))) (- 1)) (<= (+ (* (- 2) x21) (+ ?v_24 (+ ?v_45 (+ ?v_11 (+ ?v_66 (+ ?v_8 (+ ?v_54 (+ ?v_50 (+ ?v_44 (+ ?v_73 (+ ?v_46 (+ ?v_12 (+ ?v_47 (+ ?v_19 (+ ?v_29 ?v_42))))))))))))))) (- 1)) (<= (+ (* (- 2) x10) (+ ?v_13 (+ ?v_64 (+ ?v_5 (+ ?v_66 (+ ?v_17 (+ ?v_34 (+ ?v_20 (+ ?v_36 (+ ?v_6 (+ ?v_44 (+ ?v_68 (+ ?v_51 (+ ?v_73 (+ ?v_76 (+ ?v_4 ?v_77)))))))))))))))) (- 1)) (<= (+ ?v_24 (+ ?v_64 (+ ?v_1 (+ ?v_43 (+ ?v_33 (+ ?v_39 (+ ?v_18 (+ ?v_27 (+ ?v_16 (+ ?v_51 (+ ?v_28 (+ ?v_85 (+ ?v_25 (+ ?v_0 (+ ?v_34 (+ ?v_19 ?v_42)))))))))))))))) 0) (<= (+ ?v_63 (+ ?v_49 (+ ?v_43 (+ ?v_57 (+ ?v_33 (+ ?v_66 (+ ?v_7 (+ ?v_8 (+ ?v_9 (+ ?v_52 (+ ?v_18 (+ ?v_19 (+ ?v_78 (+ ?v_42 (+ ?v_81 ?v_79))))))))))))))) (- 1)) (<= (+ (* (- 2) x8) (+ ?v_25 (+ ?v_57 (+ ?v_32 (+ ?v_26 (+ ?v_5 (+ ?v_10 (+ ?v_41 (+ ?v_3 (+ ?v_34 (+ ?v_16 (+ ?v_78 (+ ?v_52 (+ ?v_73 ?v_47)))))))))))))) 1) (<= (+ ?v_74 (+ ?v_40 (+ ?v_55 (+ ?v_57 (+ ?v_32 (+ ?v_26 (+ ?v_41 (+ ?v_72 (+ ?v_3 (+ ?v_38 (+ ?v_68 (+ ?v_75 (+ ?v_87 (+ ?v_12 (+ ?v_59 (+ ?v_21 ?v_42)))))))))))))))) 1) (<= (+ ?v_22 (+ ?v_40 (+ ?v_65 (+ ?v_57 (+ ?v_61 (+ ?v_5 (+ ?v_71 (+ ?v_8 (+ ?v_78 (+ ?v_0 (+ ?v_54 (+ ?v_72 (+ ?v_46 (+ ?v_19 (+ ?v_20 ?v_80))))))))))))))) 1) (<= (+ ?v_83 (+ ?v_86 (+ ?v_65 (+ ?v_15 (+ ?v_57 (+ ?v_26 (+ ?v_61 (+ ?v_7 (+ ?v_38 (+ ?v_17 (+ ?v_27 (+ ?v_0 (+ ?v_54 (+ ?v_76 ?v_42)))))))))))))) 0) (<= (+ ?v_13 (+ ?v_74 (+ ?v_11 (+ ?v_31 (+ ?v_57 (+ ?v_66 (+ ?v_9 (+ ?v_10 (+ ?v_18 (+ ?v_3 (+ ?v_21 (+ ?v_29 (+ ?v_41 (+ ?v_76 ?v_30)))))))))))))) (- 1)) (<= (+ ?v_69 (+ ?v_60 (+ ?v_15 (+ ?v_57 (+ ?v_5 (+ ?v_66 (+ ?v_7 (+ ?v_19 (+ ?v_21 (+ ?v_27 (+ ?v_61 (+ ?v_12 (+ ?v_35 (+ ?v_68 (+ ?v_75 ?v_30))))))))))))))) (- 1)) (<= (+ ?v_49 (+ ?v_44 (+ ?v_14 (+ ?v_45 (+ ?v_25 (+ ?v_57 (+ ?v_39 (+ ?v_41 (+ ?v_54 (+ ?v_52 (+ ?v_18 (+ ?v_3 (+ ?v_47 (+ ?v_19 (+ ?v_81 (* 2 x4)))))))))))))))) (- 1)) (<= (+ ?v_61 (+ (* (- 2) x17) (+ ?v_66 (+ ?v_69 (+ ?v_9 (+ ?v_27 (+ ?v_75 (+ ?v_46 (+ ?v_56 (+ ?v_55 (+ ?v_31 (+ ?v_71 (+ ?v_0 (+ ?v_47 (+ ?v_34 ?v_48))))))))))))))) 0) (<= (+ ?v_33 (+ ?v_37 (+ ?v_82 (+ ?v_74 (+ ?v_1 (+ ?v_32 (+ ?v_71 (+ ?v_54 (+ ?v_72 (+ ?v_3 (+ ?v_16 (+ ?v_50 (+ ?v_78 (+ ?v_47 (+ ?v_19 (+ ?v_21 ?v_35)))))))))))))))) 1) (<= (+ ?v_74 (+ (* (- 2) x16) (+ ?v_60 (+ ?v_7 (+ ?v_31 (+ ?v_43 (+ ?v_27 (+ ?v_71 (+ ?v_0 (+ ?v_54 (+ ?v_9 (+ ?v_18 (+ ?v_12 (+ ?v_67 (+ ?v_75 (+ ?v_30 ?v_48)))))))))))))))) 1) (<= (+ (* (- 2) x11) (+ ?v_83 (+ ?v_45 (+ ?v_65 (+ ?v_36 (+ ?v_71 (+ ?v_66 (+ ?v_17 (+ ?v_54 (+ ?v_67 (+ ?v_50 (+ ?v_35 (+ ?v_52 (+ ?v_46 ?v_84)))))))))))))) 0) (<= (+ (* (- 2) x0) (+ ?v_24 (+ ?v_83 (+ ?v_9 (+ ?v_25 (+ ?v_27 (+ ?v_61 (+ ?v_28 (+ ?v_56 (+ ?v_71 (+ ?v_75 (+ ?v_47 (+ ?v_59 ?v_19))))))))))))) 0) (<= (+ ?v_49 (+ ?v_24 (+ ?v_82 (+ ?v_74 (+ ?v_14 (+ ?v_85 (+ ?v_71 (+ ?v_7 (+ ?v_41 (+ ?v_17 (+ ?v_0 (+ ?v_75 (+ ?v_3 (+ ?v_52 (+ ?v_62 (+ ?v_73 ?v_42)))))))))))))))) 0) (<= (+ ?v_86 (+ ?v_45 (+ (* (- 4) x23) (+ ?v_33 (+ ?v_26 (+ ?v_55 (+ ?v_36 (+ ?v_0 (+ ?v_67 (+ ?v_78 (+ ?v_46 (+ ?v_76 (+ ?v_59 ?v_48))))))))))))) (- 1)) (<= (+ ?v_49 (+ ?v_33 (+ (* 2 x12) (+ ?v_2 (+ ?v_66 (+ ?v_7 (+ ?v_9 (+ ?v_41 (+ ?v_3 (+ ?v_28 (+ ?v_12 (+ ?v_21 (+ ?v_67 ?v_4))))))))))))) (- 1)) (<= (+ ?v_40 (+ ?v_43 (+ ?v_33 (+ ?v_26 (+ ?v_39 (+ ?v_87 (+ ?v_17 (+ ?v_54 (+ ?v_9 (+ ?v_75 (+ ?v_72 (+ ?v_18 (+ ?v_3 (+ ?v_12 (+ ?v_47 ?v_88))))))))))))))) 0) (<= (+ ?v_1 (+ ?v_15 (+ ?v_43 (+ ?v_32 (+ ?v_5 (+ ?v_39 (+ ?v_7 (+ ?v_54 (+ ?v_51 (+ ?v_52 (+ ?v_21 (+ ?v_73 (+ (* 2 x19) (+ ?v_12 (+ ?v_90 (* 3 x2)))))))))))))))) (- 1)) (<= (+ ?v_89 (+ ?v_49 (+ ?v_64 (+ ?v_45 (+ ?v_8 (+ ?v_0 (+ ?v_9 (+ ?v_72 (+ ?v_47 (+ ?v_19 (+ ?v_20 (+ ?v_67 ?v_90)))))))))))) 0) (<= (+ ?v_49 (+ ?v_33 (+ ?v_82 (+ ?v_11 (+ ?v_6 (+ ?v_7 (+ ?v_17 (+ ?v_3 (+ ?v_56 (+ (* (- 2) x5) (+ ?v_20 (+ ?v_21 (+ ?v_67 (+ ?v_29 ?v_35)))))))))))))) (- 1)) (<= (+ (* (- 4) x0) (+ ?v_49 (+ ?v_24 (+ ?v_74 (+ ?v_66 (+ ?v_55 (+ ?v_17 (+ ?v_18 (+ ?v_21 (+ ?v_67 (+ ?v_42 ?v_81))))))))))) 1) (<= (+ ?v_13 (+ ?v_14 (+ ?v_45 (+ ?v_65 (+ ?v_15 (+ ?v_17 (+ ?v_21 (+ ?v_36 (+ ?v_16 (+ ?v_12 (+ ?v_35 (+ ?v_52 (+ ?v_46 ?v_30))))))))))))) 0) (<= (+ ?v_43 (+ ?v_26 (+ ?v_5 (+ ?v_39 (+ ?v_72 (+ ?v_16 (+ ?v_18 (+ ?v_3 (+ ?v_21 (+ ?v_78 (+ ?v_47 (+ ?v_35 (+ ?v_76 (+ ?v_81 ?v_91)))))))))))))) (- 1)))))))))
(check-sat)
(exit)
